results/real/sos1/jan_6_383.in
Version identifier: 22.1.0.0 | 2022-03-09 | 1a383f8ce
CPXPARAM_Threads                                 1
CPXPARAM_MIP_Strategy_VariableSelect             3
CPXPARAM_TimeLimit                               599.99998087300003
1 of 1 MIP starts provided solutions.
MIP start 'm1' defined initial solution with objective 214.0000.
Tried aggregator 2 times.
MIP Presolve eliminated 47 rows and 1533 columns.
MIP Presolve added 36 rows and 9 columns.
MIP Presolve modified 39 coefficients.
Aggregator did 9 substitutions.
Reduced MIP has 2674 rows, 3447 columns, and 100023 nonzeros.
Reduced MIP has 3447 binaries, 0 generals, 0 SOSs, and 0 indicators.
Presolve time = 0.14 sec. (197.10 ticks)
Probing time = 0.01 sec. (13.60 ticks)
Tried aggregator 1 time.
Detecting symmetries...
MIP Presolve modified 11 coefficients.
Reduced MIP has 2674 rows, 3447 columns, and 100148 nonzeros.
Reduced MIP has 3447 binaries, 0 generals, 0 SOSs, and 0 indicators.
Presolve time = 0.09 sec. (148.84 ticks)
Probing time = 0.01 sec. (13.61 ticks)
Clique table members: 1905.
MIP emphasis: balance optimality and feasibility.
MIP search method: dynamic search.
Parallel mode: none, using 1 thread.
Root relaxation solution time = 0.03 sec. (39.06 ticks)

        Nodes                                         Cuts/
   Node  Left     Objective  IInf  Best Integer    Best Bound    ItCnt     Gap

*     0+    0                          214.0000    73536.0000              --- 
      0     0      383.0000    24      214.0000      383.0000      483   78.97%
*     0+    0                          383.0000      383.0000             0.00%
      0     0        cutoff            383.0000      383.0000      483    0.00%
Elapsed time = 0.38 sec. (490.98 ticks, tree = 0.01 MB, solutions = 2)

Root node processing (before b&c):
  Real time             =    0.38 sec. (491.18 ticks)
Sequential b&c:
  Real time             =    0.00 sec. (0.00 ticks)
                          ------------
Total (root+branch&cut) =    0.38 sec. (491.18 ticks)
Primal:	383
Dual:	383
Status:	Optimal
Time:	0.44
Sequence:
	2
	1
	4
	9
	0
	5
	9
	4
	9
	9
	0
	9
	9
	4
	2
	6
	9
	9
	0
	6
	9
	9
	9
	6
	0
	5
	9
	0
	9
	3
	0
	1
	9
	9
	0
	6
	9
	0
	3
	9
	6
	9
	2
	9
	6
	9
	9
	9
	9
	9
	3
	9
	9
	9
	5
	9
	9
	0
	9
	9
	9
	0
	9
	9
	0
	9
	9
	2
	9
	9
	9
	9
	0
	9
	9
	0
	9
	9
	9
	0
	4
	9
	3
	9
	9
	9
	9
	9
	9
	9
	2
	9
	9
	9
	9
	0
	9
	4
	0
	4
	4
	0
	4
	4
	0
	4
	5
	0
	4
	6
	0
	4
	4
	0
	4
	4
	0
	6
	4
	0
	9
	6
	0
	1
	9
	0
	3
	9
	6
	4
	9
	0
	9
	1
	0
	6
	9
	0
	9
	9
	4
	0
	6
	4
	0
	9
	9
	9
	0
	9
	9
	0
	1
	9
	2
	6
	4
	0
	9
	6
	9
	9
	4
	4
	9
	4
	4
	9
	0
	4
	4
	0
	9
	4
	0
	4
	4
	0
	4
	4
	0
	4
	4
	0
	9
	4
	0
	4
	9
	2
	6
	9
	0
	9
	4
	9
	9
	0
	9
	9
	9
	0
	9
	9
	6
	4
	0
	9
	4
	0
	3
	9
	0
	9
	9
	9
	9
	0
	9
	9
	9
	0
	4
	9
	4
	9
	4
	0
	9
	9
	9
	0
	9
	9
	9
	9
	9
	9
	9
	0
	9
	6
	9
	0
	9
	9
	4
	9
	2
	9
	9
	9
	0
	6
	9
	9
	0
	9
	1
	0
	4
	6
	2
	1
	9
	9
	6
	4
	9
	1
	0
	1
	9
	0
	9
	4
	4
	0
	4
	9
	4
	0
	4
	4
	0
	4
	9
	0
	6
	9
	3
	0
	5
	9
	9
	0
	9
	9
	0
	9
	9
	9
	0
	9
	9
	9
	0
	9
	9
	0
	9
	9
	9
	0
	9
	9
	0
	4
	9
	9
	9
	0
	9
	9
	0
	9
	9
	9
	9
	4
	4
	9
	4
	2
	9
	9
	0
	4
	9
	9
	9
	0
	9
	9
	9
	9
	9
	9
	9
	9
	9
	0
	9
	9
	9
	0
	9
	9
	2
	3
	9
	2
	9
	9
	9
	2
	9
	9
	9
	2
	9
	9
	9
	2
	9
	6
	2
	9
	9
	2
	9
	1
	2
