results/real/sos1/jan_6_383.out
Version identifier: 22.1.1.0 | 2022-11-28 | 9160aff4d
CPXPARAM_Threads                                 1
CPXPARAM_MIP_Strategy_VariableSelect             3
CPXPARAM_TimeLimit                               599.99998922500004
1 of 1 MIP starts provided solutions.
MIP start 'm1' defined initial solution with objective 214.0000.
Tried aggregator 1 time.
MIP Presolve eliminated 19 rows and 1532 columns.
MIP Presolve modified 33 coefficients.
Reduced MIP has 2292 rows, 3447 columns, and 96954 nonzeros.
Reduced MIP has 3447 binaries, 0 generals, 0 SOSs, and 0 indicators.
Presolve time = 0.06 sec. (155.07 ticks)
Probing time = 0.01 sec. (13.60 ticks)
Tried aggregator 1 time.
Detecting symmetries...
MIP Presolve modified 9 coefficients.
Reduced MIP has 2292 rows, 3447 columns, and 97068 nonzeros.
Reduced MIP has 3447 binaries, 0 generals, 0 SOSs, and 0 indicators.
Presolve time = 0.05 sec. (143.79 ticks)
Probing time = 0.01 sec. (13.61 ticks)
Clique table members: 1523.
MIP emphasis: balance optimality and feasibility.
MIP search method: dynamic search.
Parallel mode: none, using 1 thread.
Root relaxation solution time = 0.01 sec. (30.61 ticks)

        Nodes                                         Cuts/
   Node  Left     Objective  IInf  Best Integer    Best Bound    ItCnt     Gap

*     0+    0                          214.0000    73536.0000              --- 
      0     0      383.0000    10      214.0000      383.0000      409   78.97%
*     0+    0                          383.0000      383.0000             0.00%
      0     0        cutoff            383.0000      383.0000      409    0.00%
Elapsed time = 0.18 sec. (433.87 ticks, tree = 0.01 MB, solutions = 2)

Root node processing (before b&c):
  Real time             =    0.18 sec. (434.06 ticks)
Sequential b&c:
  Real time             =    0.00 sec. (0.00 ticks)
                          ------------
Total (root+branch&cut) =    0.18 sec. (434.06 ticks)
Primal:	383
Dual:	383
Status:	Optimal
Time:	0.19
Sequence:
	0
	4
	4
	9
	3
	9
	2
	9
	6
	9
	0
	9
	6
	9
	4
	2
	6
	9
	0
	9
	9
	9
	9
	9
	0
	9
	9
	0
	9
	5
	0
	9
	5
	9
	0
	9
	9
	0
	9
	9
	0
	9
	9
	2
	9
	9
	9
	9
	9
	9
	9
	9
	9
	9
	4
	4
	0
	4
	4
	9
	4
	0
	4
	4
	0
	4
	4
	9
	4
	4
	9
	2
	4
	9
	9
	0
	9
	9
	4
	4
	9
	4
	4
	9
	4
	4
	9
	9
	6
	4
	9
	4
	6
	9
	9
	0
	9
	9
	0
	9
	9
	0
	4
	6
	0
	9
	9
	4
	4
	9
	0
	9
	9
	0
	9
	9
	0
	9
	6
	0
	9
	5
	3
	2
	6
	4
	0
	9
	3
	0
	4
	5
	2
	9
	3
	9
	0
	4
	6
	0
	9
	9
	0
	1
	6
	9
	0
	4
	6
	0
	3
	4
	4
	0
	4
	9
	0
	6
	9
	9
	9
	0
	4
	4
	9
	9
	0
	9
	9
	9
	9
	0
	9
	4
	0
	9
	6
	0
	9
	9
	0
	9
	9
	0
	9
	9
	0
	6
	9
	0
	9
	9
	0
	9
	4
	0
	9
	9
	9
	9
	0
	9
	9
	0
	9
	9
	0
	9
	9
	2
	9
	4
	2
	4
	9
	0
	9
	9
	0
	9
	3
	0
	6
	9
	9
	0
	9
	9
	9
	9
	9
	6
	3
	0
	9
	6
	9
	0
	4
	9
	9
	2
	9
	4
	2
	9
	9
	6
	0
	4
	5
	3
	6
	4
	0
	9
	4
	0
	4
	9
	0
	9
	9
	0
	9
	9
	0
	9
	9
	0
	9
	9
	9
	0
	4
	9
	2
	9
	9
	0
	4
	4
	2
	4
	4
	9
	9
	0
	4
	9
	0
	9
	9
	0
	9
	9
	0
	9
	9
	0
	9
	9
	0
	9
	9
	9
	0
	9
	9
	0
	9
	9
	2
	6
	9
	9
	9
	9
	0
	4
	9
	9
	9
	9
	0
	9
	4
	0
	9
	9
	9
	2
	9
	9
	9
	2
	9
	9
	9
	0
	9
	9
	9
	9
	0
	9
	9
	2
	9
	9
	9
	2
	9
	1
	1
	9
	1
	9
	1
	9
	1
	0
	9
	9
	6
	9
	0
	9
	9
	4
	4
	0
	9
	9
	9
	2
	1
	1
	1
	4
	9
	1
	6
